certificates/rado_a9_c228_N27.drat
-27 0
12 0
-24 0
9 0
15 0
25 0
-6 0
0
